%%%mzn-stat: initTime=0.034329511
%%%mzn-stat: objective=679
%%%mzn-stat: nodes=1165
%%%mzn-stat: restarts=0
%%%mzn-stat: peakDepth=84
%%%mzn-stat: solveTime=0.02901031
%%%mzn-stat: variables=206
%%%mzn-stat: propagators=127
%%%mzn-stat: failures=710
%%%mzn-stat: propagations=34382
%%%mzn-stat: nogoods=710
%%%mzn-stat: AverageConflictSize=3.6816901408450704
%%%mzn-stat: NumUnitNogoodsLearned=587
%%%mzn-stat: AverageLearnedNogoodLength=1.684507042253521
%%%mzn-stat: AverageBacktrackAmount=0
%%%mzn-stat: AverageLbd=1.3732394366197183
%%%mzn-stat-end
maxleg = 679;
succ = array1d(1..20,[3, 9, 19, 12, 20, 8, 16, 4, 7, 1, 18, 15, 6, 17, 14, 11, 10, 5, 2, 13]);
% time elapsed: 8.45 s
----------
==========
% time elapsed: 8.45 s
%%%mzn-stat: initTime=0.034329511
%%%mzn-stat: objective=679
%%%mzn-stat: nodes=1165
%%%mzn-stat: restarts=0
%%%mzn-stat: peakDepth=84
%%%mzn-stat: solveTime=0.029013399
%%%mzn-stat: variables=206
%%%mzn-stat: propagators=127
%%%mzn-stat: failures=710
%%%mzn-stat: propagations=34382
%%%mzn-stat: nogoods=710
%%%mzn-stat: AverageConflictSize=3.6816901408450704
%%%mzn-stat: NumUnitNogoodsLearned=587
%%%mzn-stat: AverageLearnedNogoodLength=1.684507042253521
%%%mzn-stat: AverageBacktrackAmount=0
%%%mzn-stat: AverageLbd=1.3732394366197183
%%%mzn-stat-end
